n_nurses =  30;
sched_period =  28;
n_shifts =  3;
nurses_coverage = array2d(period, shifts, [
5, 5, 11,
8, 4, 3,
4, 3, 8,
3, 4, 1,
5, 6, 13,
7, 2, 7,
8, 10, 3,
11, 5, 5,
8, 6, 3,
2, 8, 8,
3, 11, 10,
5, 3, 10,
7, 7, 3,
0, 0, 0,
0, 0, 0,
0, 0, 0,
0, 0, 0,
0, 0, 0,
0, 0, 0,
7, 2, 9,
0, 0, 0,
9, 3, 7,
0, 0, 0,
11, 3, 7,
0, 0, 0,
0, 0, 0,
0, 0, 0,
0, 0, 0]);
